========================================================== 
File name: C:\DEGR\assets\definitions\MSRCPSP_Gen\200_10_64_5_A.def
Creation date: Wed May 03 10:45:44 CEST 2023
Website: http://imopse.ii.pwr.edu.pl/ 
Reference: 
Myszkowski P. B., Skowronski M. E., Olech L., Oslizlo K., 
Hybrid Ant Colony Optimization in solving Multi-Skill Resource-Constrained Project Scheduling Problem, 
Soft Computing, DOI: DOI 10.1007/s00500-014-1455-x 
========================================================== 
General characteristics: 
Tasks: 200
Resources: 10
Precedence relations: 64
Number of skill types: 5
========================================================== 
ResourceID 	 Salary 	 Skills 
1	 	 	78.7	 	 Q0: 3 	  Q2: 0 	 
2	 	 	67.3	 	 Q3: 1 	 
3	 	 	69.5	 	 Q0: 3 	  Q4: 2 	  Q1: 2 	  Q3: 3 	 
4	 	 	69.1	 	 Q4: 0 	  Q1: 3 	  Q3: 1 	  Q2: 0 	 
5	 	 	29.3	 	 Q1: 0 	  Q2: 3 	  Q0: 3 	  Q4: 3 	 
6	 	 	95.9	 	 Q3: 1 	  Q2: 1 	  Q1: 1 	 
7	 	 	37.4	 	 Q1: 3 	 
8	 	 	17.4	 	 Q1: 0 	 
9	 	 	16.9	 	 Q0: 3 	  Q2: 3 	  Q4: 3 	  Q1: 2 	 
10	 	 	65.3	 	 Q1: 0 	  Q2: 1 	 
========================================================== 
TaskID 	 Duration 	 Skill 	 Predecessor IDs 
1	16	Q4:	3
2	35	Q2:	3
3	30	Q1:	1
4	9	Q1:	3
5	20	Q4:	2
6	20	Q1:	0
7	40	Q2:	0
8	15	Q1:	3
9	17	Q2:	3
10	30	Q1:	3
11	34	Q3:	3
12	35	Q1:	0
13	15	Q4:	2
14	14	Q2:	0
15	20	Q1:	1
16	23	Q1:	0
17	21	Q1:	0
18	13	Q2:	3
19	12	Q1:	0
20	28	Q0:	3
21	17	Q1:	3
22	25	Q3:	3
23	40	Q3:	3
24	25	Q4:	0
25	12	Q1:	3
26	30	Q2:	0
27	13	Q1:	0	23
28	35	Q2:	3
29	35	Q2:	1
30	25	Q2:	3
31	15	Q1:	2
32	11	Q1:	2
33	24	Q3:	3
34	10	Q2:	0	27
35	26	Q2:	1
36	29	Q1:	1
37	11	Q1:	2
38	35	Q1:	2	21
39	20	Q1:	3
40	22	Q4:	0
41	37	Q3:	1
42	40	Q2:	3
43	18	Q0:	3
44	23	Q3:	3
45	39	Q4:	2
46	36	Q1:	1	16
47	31	Q4:	0
48	15	Q2:	0
49	17	Q4:	3
50	33	Q2:	0	47
51	22	Q0:	3
52	9	Q3:	1
53	28	Q0:	3
54	36	Q1:	0	10
55	34	Q2:	3
56	21	Q1:	3
57	18	Q4:	0
58	9	Q4:	0
59	10	Q3:	3	40
60	33	Q1:	2
61	21	Q1:	0	47
62	9	Q3:	3
63	36	Q3:	1
64	17	Q3:	3
65	33	Q2:	3
66	29	Q1:	0	5
67	9	Q0:	3
68	31	Q2:	3
69	33	Q3:	3
70	10	Q4:	0
71	26	Q4:	0	68
72	34	Q3:	3	27
73	13	Q4:	2
74	17	Q1:	1
75	40	Q0:	3	64
76	17	Q2:	1	75	43
77	21	Q1:	3
78	24	Q2:	1
79	15	Q1:	3	75
80	17	Q1:	2	12
81	12	Q2:	1
82	39	Q4:	0	72
83	40	Q1:	3
84	29	Q1:	3
85	23	Q1:	0
86	29	Q1:	1
87	34	Q1:	2
88	21	Q1:	1
89	14	Q1:	1	74
90	37	Q1:	2	58
91	36	Q3:	1
92	38	Q2:	0
93	39	Q0:	3
94	19	Q3:	3
95	29	Q2:	0
96	31	Q2:	3
97	22	Q2:	1
98	23	Q1:	0
99	35	Q3:	3
100	39	Q3:	1	36
101	32	Q1:	3	13
102	10	Q0:	3	90
103	15	Q2:	0
104	35	Q2:	1	62
105	15	Q1:	3	45
106	32	Q1:	1
107	27	Q1:	3
108	18	Q2:	3
109	39	Q4:	0
110	15	Q1:	0
111	13	Q2:	3	101
112	39	Q2:	3	21
113	36	Q4:	0
114	18	Q1:	3	57
115	39	Q3:	3
116	22	Q2:	0
117	31	Q4:	3	57
118	31	Q2:	0
119	24	Q4:	3
120	25	Q4:	2
121	27	Q1:	0	46
122	20	Q4:	3
123	32	Q0:	3
124	23	Q3:	1
125	13	Q3:	1	53
126	28	Q3:	3	72
127	28	Q4:	0	118
128	39	Q4:	3	109
129	32	Q3:	1
130	32	Q1:	1
131	35	Q4:	0
132	19	Q0:	3
133	23	Q1:	0
134	19	Q1:	0
135	26	Q4:	3
136	19	Q2:	3
137	13	Q4:	2
138	38	Q0:	3
139	35	Q2:	0
140	15	Q0:	3	95
141	34	Q2:	0
142	24	Q2:	1
143	26	Q2:	0
144	24	Q4:	2	127
145	35	Q1:	1
146	16	Q2:	3
147	33	Q4:	3
148	22	Q2:	3	66
149	10	Q2:	3	18
150	37	Q4:	0	139
151	17	Q4:	3
152	35	Q1:	2
153	23	Q2:	0
154	9	Q2:	0	1
155	32	Q1:	1
156	17	Q3:	1	115	109
157	10	Q2:	3	27	73
158	35	Q1:	3
159	27	Q1:	2
160	26	Q3:	3
161	32	Q2:	1
162	24	Q4:	3
163	26	Q0:	3
164	23	Q2:	0
165	28	Q2:	1	64
166	30	Q2:	1	21
167	11	Q1:	2
168	22	Q1:	0
169	28	Q4:	0	67
170	39	Q2:	3	103
171	17	Q1:	1
172	18	Q4:	2
173	17	Q3:	1	78
174	30	Q1:	3
175	13	Q3:	1
176	27	Q4:	2	93
177	23	Q0:	3	80
178	29	Q2:	3	171
179	40	Q1:	1
180	24	Q1:	2
181	13	Q4:	2
182	16	Q2:	3	112
183	16	Q2:	3
184	33	Q0:	3	112
185	9	Q4:	3
186	24	Q2:	1	14	2	150
187	30	Q2:	0
188	15	Q1:	3
189	31	Q2:	0	122
190	18	Q1:	3
191	36	Q2:	3	160	14
192	29	Q4:	2
193	10	Q1:	1
194	25	Q2:	3
195	13	Q1:	1
196	15	Q4:	3	190	148
197	32	Q0:	3	147
198	21	Q4:	3	79
199	27	Q4:	2	172
200	14	Q4:	3
========================================================== 